120
1000
200
200
200
200
200
199
198
198
197
197
196
196
196
195
194
194
194
194
193
193
193
193
193
192
192
192
191
191
190
189
188
188
188
187
186
186
186
186
185
185
184
184
183
183
183
183
182
181
181
180
179
178
178
177
176
175
175
174
174
174
173
173
172
171
171
170
170
170
169
169
169
167
167
167
167
166
166
166
166
166
165
165
165
164
164
164
163
163
163
163
162
162
162
162
161
160
160
159
159
159
159
158
158
158
158
157
157
157
157
157
156
154
152
151
151
151
151
150
150
150
